NAME: ACTUAL_TOURS/amz1053
TYPE: TOUR
COMMENT: RouteID_6f5b4915-5b8b-4f5d-88f0-62ac6e9227da
DIMENSION: 177
TOUR_SECTION
67
114
7
107
132
76
38
43
102
115
56
91
101
6
86
157
126
106
147
141
62
4
164
138
148
45
52
160
54
162
12
85
46
127
80
89
35
39
167
137
112
41
177
34
156
118
140
93
28
87
25
83
60
57
153
72
21
74
119
174
108
96
71
98
123
31
44
169
122
50
37
145
81
110
48
49
133
13
11
8
135
53
163
55
116
9
124
92
47
51
172
32
149
134
26
136
20
170
100
168
29
125
14
2
113
58
78
88
173
77
69
146
16
19
70
166
175
36
17
117
158
61
68
23
33
155
79
40
121
161
128
73
154
5
90
144
75
84
109
165
27
151
139
99
130
24
82
176
150
97
111
120
95
63
59
105
142
152
104
42
22
66
3
159
65
18
10
15
94
1
143
103
171
64
131
129
30
-1
EOF
